param n := 120;
param c := 1500
param : V : p w :=
   0	  36	  26
   1	  35	  25
   2	  77	  67
   3	  87	  77
   4	  77	  67
   5	  89	  79
   6	  57	  47
   7	  94	  84
   8	  60	  50
   9	  31	  21
  10	  97	  87
  11	  93	  83
  12	  54	  44
  13	  98	  88
  14	  88	  78
  15	  63	  53
  16	  88	  78
  17	  47	  37
  18	  57	  47
  19	  62	  52
  20	  42	  32
  21	  98	  88
  22	  95	  85
  23	  92	  82
  24	  65	  55
  25	  51	  41
  26	  70	  60
  27	  76	  66
  28	  88	  78
  29	  82	  72
  30	  44	  34
  31	  74	  64
  32	  30	  20
  33	  70	  60
  34	 110	 100
  35	  72	  62
  36	  90	  80
  37	  44	  34
  38	  78	  68
  39	  48	  38
  40	  42	  32
  41	  42	  32
  42	  47	  37
  43	  92	  82
  44	 108	  98
  45	 100	  90
  46	  68	  58
  47	 107	  97
  48	  66	  56
  49	  44	  34
  50	  80	  70
  51	  49	  39
  52	  66	  56
  53	  79	  69
  54	  46	  36
  55	  30	  20
  56	 109	  99
  57	  94	  84
  58	  63	  53
  59	  37	  27
  60	  98	  88
  61	  63	  53
  62	  52	  42
  63	  55	  45
  64	  52	  42
  65	  41	  31
  66	  64	  54
  67	  70	  60
  68	  65	  55
  69	  37	  27
  70	  46	  36
  71	  41	  31
  72	  49	  39
  73	 101	  91
  74	  55	  45
  75	 107	  97
  76	  36	  26
  77	  90	  80
  78	  51	  41
  79	  66	  56
  80	  80	  70
  81	 107	  97
  82	  58	  48
  83	  97	  87
  84	  33	  23
  85	  42	  32
  86	  85	  75
  87	 110	 100
  88	 107	  97
  89	  61	  51
  90	  88	  78
  91	  88	  78
  92	  31	  21
  93	  82	  72
  94	  82	  72
  95	  89	  79
  96	  56	  46
  97	  40	  30
  98	  58	  48
  99	  37	  27
 100	 105	  95
 101	  58	  48
 102	  77	  67
 103	  68	  58
 104	  56	  46
 105	 102	  92
 106	  31	  21
 107	  92	  82
 108	 101	  91
 109	  50	  40
 110	  66	  56
 111	  34	  24
 112	 104	  94
 113	  54	  44
 114	 101	  91
 115	 102	  92
 116	  91	  81
 117	  34	  24
 118	  94	  84
 119	  54	  44
;

set E :=
   0	   1
   0	   2
   0	   5
   0	   8
   0	  10
   0	  11
   0	  12
   0	  15
   0	  16
   0	  26
   0	  30
   0	  34
   0	  35
   0	  36
   0	  38
   0	  39
   0	  41
   0	  43
   0	  49
   0	  52
   0	  54
   0	  58
   0	  61
   0	  62
   0	  69
   0	  74
   0	  79
   0	  81
   0	  83
   0	  95
   0	  98
   0	 101
   0	 106
   0	 117
   1	   5
   1	   8
   1	  13
   1	  15
   1	  16
   1	  17
   1	  18
   1	  19
   1	  20
   1	  21
   1	  22
   1	  26
   1	  31
   1	  36
   1	  45
   1	  46
   1	  48
   1	  50
   1	  51
   1	  52
   1	  55
   1	  59
   1	  61
   1	  65
   1	  74
   1	  77
   1	  81
   1	  88
   1	  90
   1	  97
   1	 106
   1	 108
   1	 111
   1	 114
   1	 115
   1	 116
   1	 118
   2	   3
   2	   5
   2	  11
   2	  13
   2	  16
   2	  19
   2	  23
   2	  25
   2	  27
   2	  29
   2	  32
   2	  36
   2	  38
   2	  39
   2	  40
   2	  47
   2	  48
   2	  50
   2	  53
   2	  54
   2	  56
   2	  65
   2	  78
   2	  79
   2	  81
   2	  83
   2	  84
   2	  91
   2	  99
   2	 102
   2	 104
   2	 110
   2	 112
   2	 115
   2	 117
   2	 118
   3	   5
   3	   7
   3	   8
   3	  11
   3	  16
   3	  21
   3	  25
   3	  26
   3	  30
   3	  31
   3	  32
   3	  33
   3	  36
   3	  42
   3	  43
   3	  49
   3	  55
   3	  57
   3	  60
   3	  64
   3	  65
   3	  69
   3	  70
   3	  76
   3	  82
   3	  88
   3	  90
   3	  92
   3	  94
   3	 100
   3	 101
   3	 106
   3	 107
   3	 109
   3	 110
   3	 111
   3	 116
   4	   6
   4	  12
   4	  16
   4	  17
   4	  23
   4	  25
   4	  28
   4	  29
   4	  30
   4	  34
   4	  35
   4	  37
   4	  40
   4	  41
   4	  48
   4	  49
   4	  57
   4	  58
   4	  62
   4	  65
   4	  66
   4	  67
   4	  70
   4	  76
   4	  77
   4	  79
   4	  80
   4	  81
   4	  85
   4	  91
   4	  92
   4	  95
   4	  97
   4	  99
   4	 103
   4	 108
   4	 111
   4	 112
   4	 115
   5	   7
   5	  11
   5	  13
   5	  14
   5	  16
   5	  19
   5	  21
   5	  22
   5	  25
   5	  28
   5	  29
   5	  30
   5	  31
   5	  34
   5	  37
   5	  41
   5	  48
   5	  49
   5	  54
   5	  57
   5	  61
   5	  66
   5	  70
   5	  73
   5	  76
   5	  80
   5	  82
   5	  83
   5	  95
   5	  96
   5	 100
   5	 101
   5	 105
   5	 116
   5	 117
   5	 118
   6	   7
   6	   8
   6	   9
   6	  14
   6	  15
   6	  19
   6	  34
   6	  44
   6	  51
   6	  53
   6	  54
   6	  56
   6	  58
   6	  60
   6	  68
   6	  72
   6	  75
   6	  78
   6	  79
   6	  80
   6	  81
   6	  89
   6	  93
   6	  95
   6	 100
   6	 111
   6	 112
   6	 114
   6	 115
   7	   8
   7	  13
   7	  15
   7	  24
   7	  25
   7	  29
   7	  31
   7	  35
   7	  37
   7	  39
   7	  40
   7	  42
   7	  55
   7	  56
   7	  58
   7	  60
   7	  62
   7	  65
   7	  66
   7	  67
   7	  75
   7	  76
   7	  80
   7	  82
   7	  83
   7	  84
   7	  88
   7	  91
   7	  94
   7	  96
   7	  97
   7	 100
   7	 102
   7	 104
   7	 106
   7	 112
   7	 113
   7	 115
   7	 117
   7	 118
   7	 119
   8	   9
   8	  10
   8	  13
   8	  14
   8	  18
   8	  19
   8	  24
   8	  28
   8	  30
   8	  32
   8	  43
   8	  44
   8	  50
   8	  51
   8	  52
   8	  53
   8	  58
   8	  60
   8	  64
   8	  69
   8	  70
   8	  76
   8	  79
   8	  85
   8	  86
   8	  88
   8	  89
   8	  94
   8	  98
   8	 101
   8	 104
   8	 105
   8	 109
   8	 110
   8	 112
   8	 118
   8	 119
   9	  11
   9	  13
   9	  17
   9	  23
   9	  29
   9	  34
   9	  36
   9	  38
   9	  40
   9	  44
   9	  47
   9	  48
   9	  56
   9	  57
   9	  58
   9	  63
   9	  64
   9	  66
   9	  67
   9	  70
   9	  74
   9	  75
   9	  79
   9	  91
   9	  93
   9	  99
   9	 104
   9	 112
   9	 117
   9	 119
  10	  15
  10	  19
  10	  21
  10	  23
  10	  27
  10	  28
  10	  30
  10	  31
  10	  34
  10	  38
  10	  40
  10	  41
  10	  50
  10	  51
  10	  52
  10	  61
  10	  65
  10	  66
  10	  67
  10	  71
  10	  74
  10	  79
  10	  84
  10	  85
  10	  87
  10	  89
  10	  93
  10	  94
  10	 100
  10	 107
  10	 112
  10	 117
  11	  17
  11	  18
  11	  26
  11	  28
  11	  29
  11	  32
  11	  38
  11	  43
  11	  44
  11	  48
  11	  53
  11	  54
  11	  55
  11	  57
  11	  58
  11	  59
  11	  62
  11	  64
  11	  69
  11	  74
  11	  79
  11	  83
  11	  86
  11	  89
  11	  97
  11	  98
  11	  99
  11	 100
  11	 103
  11	 106
  11	 110
  11	 114
  12	  15
  12	  18
  12	  31
  12	  32
  12	  33
  12	  37
  12	  38
  12	  41
  12	  45
  12	  48
  12	  49
  12	  53
  12	  62
  12	  63
  12	  64
  12	  66
  12	  68
  12	  71
  12	  73
  12	  79
  12	  80
  12	  82
  12	  91
  12	  92
  12	 101
  12	 105
  12	 106
  12	 110
  12	 111
  12	 119
  13	  14
  13	  20
  13	  21
  13	  23
  13	  24
  13	  25
  13	  26
  13	  31
  13	  34
  13	  39
  13	  45
  13	  47
  13	  48
  13	  55
  13	  56
  13	  57
  13	  60
  13	  67
  13	  71
  13	  75
  13	  77
  13	  78
  13	  85
  13	  89
  13	  90
  13	  92
  13	  94
  13	  96
  13	  97
  13	 101
  13	 102
  13	 106
  13	 108
  13	 109
  13	 111
  14	  15
  14	  19
  14	  22
  14	  24
  14	  32
  14	  35
  14	  37
  14	  41
  14	  42
  14	  46
  14	  52
  14	  55
  14	  56
  14	  57
  14	  59
  14	  66
  14	  67
  14	  71
  14	  77
  14	  80
  14	  81
  14	  83
  14	  86
  14	  87
  14	  89
  14	  90
  14	  91
  14	  94
  14	  97
  14	 103
  14	 109
  14	 110
  14	 111
  14	 114
  14	 116
  14	 117
  15	  19
  15	  21
  15	  23
  15	  26
  15	  29
  15	  34
  15	  37
  15	  39
  15	  41
  15	  42
  15	  45
  15	  47
  15	  55
  15	  57
  15	  62
  15	  63
  15	  68
  15	  74
  15	  75
  15	  77
  15	  78
  15	  83
  15	  84
  15	  85
  15	  89
  15	  92
  15	  93
  15	 103
  15	 104
  15	 105
  15	 108
  15	 117
  15	 119
  16	  17
  16	  18
  16	  30
  16	  33
  16	  38
  16	  39
  16	  57
  16	  61
  16	  64
  16	  69
  16	  70
  16	  74
  16	  81
  16	  82
  16	  84
  16	  86
  16	  87
  16	  88
  16	  94
  16	  97
  16	  99
  16	 100
  16	 103
  16	 108
  16	 112
  16	 113
  16	 116
  16	 117
  17	  20
  17	  23
  17	  34
  17	  36
  17	  38
  17	  40
  17	  43
  17	  48
  17	  49
  17	  50
  17	  51
  17	  55
  17	  58
  17	  59
  17	  62
  17	  69
  17	  72
  17	  73
  17	  74
  17	  75
  17	  76
  17	  77
  17	  78
  17	  80
  17	  82
  17	  88
  17	  90
  17	  93
  17	  96
  17	  98
  17	 102
  17	 103
  17	 109
  17	 111
  17	 118
  18	  21
  18	  23
  18	  25
  18	  27
  18	  31
  18	  33
  18	  37
  18	  39
  18	  44
  18	  48
  18	  52
  18	  54
  18	  56
  18	  59
  18	  61
  18	  66
  18	  71
  18	  76
  18	  89
  18	  96
  18	  98
  18	 100
  18	 104
  18	 107
  18	 110
  18	 111
  18	 112
  18	 114
  19	  20
  19	  22
  19	  23
  19	  26
  19	  27
  19	  28
  19	  29
  19	  31
  19	  35
  19	  40
  19	  41
  19	  42
  19	  44
  19	  47
  19	  53
  19	  54
  19	  55
  19	  66
  19	  68
  19	  74
  19	  78
  19	  83
  19	  85
  19	  87
  19	  96
  19	  98
  19	 106
  19	 111
  19	 114
  19	 118
  20	  21
  20	  22
  20	  23
  20	  25
  20	  27
  20	  29
  20	  31
  20	  32
  20	  34
  20	  38
  20	  40
  20	  45
  20	  47
  20	  52
  20	  54
  20	  55
  20	  58
  20	  59
  20	  65
  20	  67
  20	  74
  20	  77
  20	  78
  20	  82
  20	  84
  20	  85
  20	  86
  20	  87
  20	  89
  20	  91
  20	  96
  20	  97
  20	  99
  20	 102
  20	 105
  20	 108
  20	 117
  21	  22
  21	  23
  21	  28
  21	  32
  21	  33
  21	  37
  21	  40
  21	  41
  21	  45
  21	  46
  21	  50
  21	  54
  21	  55
  21	  59
  21	  60
  21	  61
  21	  62
  21	  65
  21	  66
  21	  71
  21	  75
  21	  81
  21	  92
  21	  94
  21	  95
  21	 100
  21	 103
  21	 104
  21	 107
  21	 109
  21	 110
  21	 111
  21	 112
  21	 113
  21	 116
  21	 118
  22	  23
  22	  24
  22	  29
  22	  30
  22	  31
  22	  33
  22	  36
  22	  37
  22	  50
  22	  54
  22	  57
  22	  67
  22	  70
  22	  77
  22	  81
  22	  83
  22	  88
  22	  91
  22	  98
  22	 113
  22	 114
  22	 115
  22	 116
  22	 117
  22	 119
  23	  27
  23	  29
  23	  32
  23	  39
  23	  40
  23	  41
  23	  44
  23	  49
  23	  53
  23	  54
  23	  59
  23	  67
  23	  68
  23	  71
  23	  75
  23	  80
  23	  84
  23	  85
  23	  93
  23	  94
  23	 102
  23	 104
  23	 106
  23	 108
  23	 112
  23	 113
  23	 114
  23	 117
  23	 119
  24	  25
  24	  37
  24	  40
  24	  43
  24	  46
  24	  48
  24	  49
  24	  53
  24	  57
  24	  58
  24	  62
  24	  64
  24	  65
  24	  66
  24	  71
  24	  73
  24	  82
  24	  84
  24	  85
  24	  88
  24	  89
  24	  96
  24	  97
  24	  99
  24	 103
  24	 105
  24	 108
  24	 109
  24	 110
  24	 111
  24	 113
  24	 114
  24	 118
  24	 119
  25	  27
  25	  29
  25	  30
  25	  32
  25	  36
  25	  43
  25	  44
  25	  45
  25	  50
  25	  51
  25	  52
  25	  56
  25	  57
  25	  58
  25	  65
  25	  66
  25	  68
  25	  75
  25	  78
  25	  80
  25	  83
  25	  86
  25	  91
  25	  93
  25	  94
  25	  97
  25	  99
  25	 104
  25	 110
  25	 118
  26	  42
  26	  43
  26	  44
  26	  48
  26	  49
  26	  50
  26	  51
  26	  53
  26	  54
  26	  56
  26	  57
  26	  63
  26	  64
  26	  66
  26	  75
  26	  78
  26	  81
  26	  83
  26	  85
  26	  86
  26	  90
  26	 103
  26	 108
  26	 112
  26	 116
  26	 118
  27	  29
  27	  32
  27	  33
  27	  34
  27	  43
  27	  44
  27	  51
  27	  52
  27	  53
  27	  58
  27	  61
  27	  62
  27	  63
  27	  66
  27	  72
  27	  73
  27	  78
  27	  85
  27	  93
  27	  96
  27	 102
  27	 106
  27	 107
  27	 109
  27	 114
  27	 118
  28	  29
  28	  32
  28	  37
  28	  38
  28	  40
  28	  41
  28	  44
  28	  45
  28	  46
  28	  47
  28	  48
  28	  49
  28	  50
  28	  51
  28	  59
  28	  60
  28	  61
  28	  63
  28	  64
  28	  65
  28	  67
  28	  76
  28	  80
  28	  84
  28	  85
  28	  86
  28	  94
  28	  95
  28	  99
  28	 100
  28	 101
  28	 104
  28	 111
  28	 114
  28	 116
  29	  30
  29	  31
  29	  37
  29	  39
  29	  42
  29	  46
  29	  47
  29	  50
  29	  52
  29	  57
  29	  58
  29	  62
  29	  65
  29	  69
  29	  71
  29	  72
  29	  73
  29	  75
  29	  76
  29	  78
  29	  81
  29	  82
  29	  85
  29	  86
  29	  88
  29	  95
  29	  98
  29	 105
  29	 106
  29	 107
  29	 114
  29	 115
  29	 117
  30	  35
  30	  38
  30	  42
  30	  44
  30	  45
  30	  48
  30	  49
  30	  57
  30	  59
  30	  64
  30	  69
  30	  73
  30	  74
  30	  79
  30	  85
  30	  87
  30	  91
  30	  94
  30	  96
  30	  97
  30	  99
  30	 106
  30	 109
  30	 112
  30	 113
  31	  32
  31	  37
  31	  41
  31	  44
  31	  51
  31	  59
  31	  61
  31	  63
  31	  64
  31	  65
  31	  66
  31	  67
  31	  69
  31	  74
  31	  76
  31	  77
  31	  79
  31	  81
  31	  82
  31	  85
  31	  88
  31	  91
  31	  96
  31	  99
  31	 102
  31	 104
  31	 109
  31	 111
  31	 117
  31	 118
  32	  33
  32	  34
  32	  38
  32	  39
  32	  41
  32	  42
  32	  45
  32	  51
  32	  57
  32	  58
  32	  60
  32	  63
  32	  68
  32	  70
  32	  71
  32	  78
  32	  81
  32	  82
  32	  83
  32	  86
  32	  88
  32	  91
  32	  93
  32	  95
  32	  96
  32	  99
  32	 103
  32	 110
  32	 113
  32	 116
  32	 118
  33	  36
  33	  39
  33	  48
  33	  49
  33	  51
  33	  52
  33	  53
  33	  56
  33	  57
  33	  58
  33	  61
  33	  65
  33	  66
  33	  67
  33	  68
  33	  69
  33	  72
  33	  78
  33	  79
  33	  81
  33	  87
  33	  91
  33	  94
  33	  95
  33	  98
  33	  99
  33	 102
  33	 103
  33	 104
  33	 106
  33	 107
  33	 111
  33	 112
  33	 114
  33	 119
  34	  39
  34	  41
  34	  47
  34	  48
  34	  52
  34	  53
  34	  57
  34	  58
  34	  63
  34	  64
  34	  67
  34	  70
  34	  75
  34	  76
  34	  90
  34	  91
  34	  92
  34	  93
  34	  95
  34	  96
  34	  97
  34	  98
  34	  99
  34	 106
  34	 107
  34	 117
  35	  38
  35	  40
  35	  47
  35	  54
  35	  56
  35	  60
  35	  62
  35	  66
  35	  67
  35	  69
  35	  79
  35	  80
  35	  82
  35	  83
  35	  84
  35	  86
  35	  93
  35	  97
  35	  99
  35	 100
  35	 103
  35	 104
  35	 110
  35	 111
  35	 113
  35	 116
  35	 117
  35	 118
  36	  38
  36	  46
  36	  52
  36	  54
  36	  55
  36	  58
  36	  59
  36	  61
  36	  64
  36	  66
  36	  69
  36	  75
  36	  76
  36	  77
  36	  78
  36	  80
  36	  82
  36	  92
  36	  94
  36	 103
  36	 108
  37	  40
  37	  42
  37	  46
  37	  48
  37	  49
  37	  55
  37	  64
  37	  68
  37	  70
  37	  80
  37	  83
  37	  86
  37	  87
  37	  89
  37	  94
  37	  95
  37	  99
  37	 111
  37	 113
  37	 115
  37	 117
  37	 118
  38	  43
  38	  48
  38	  49
  38	  51
  38	  52
  38	  54
  38	  68
  38	  71
  38	  75
  38	  77
  38	  83
  38	  84
  38	  85
  38	  91
  38	  95
  38	 103
  38	 105
  38	 106
  38	 108
  38	 113
  38	 115
  39	  42
  39	  48
  39	  52
  39	  53
  39	  54
  39	  55
  39	  58
  39	  63
  39	  66
  39	  67
  39	  69
  39	  70
  39	  77
  39	  85
  39	 100
  39	 106
  39	 114
  40	  42
  40	  45
  40	  46
  40	  54
  40	  59
  40	  62
  40	  66
  40	  71
  40	  72
  40	  77
  40	  79
  40	  80
  40	  81
  40	  82
  40	  86
  40	  88
  40	  90
  40	  91
  40	 105
  40	 113
  40	 116
  40	 119
  41	  45
  41	  54
  41	  56
  41	  58
  41	  59
  41	  60
  41	  63
  41	  65
  41	  69
  41	  71
  41	  72
  41	  73
  41	  74
  41	  77
  41	  78
  41	  82
  41	  86
  41	  91
  41	  92
  41	  93
  41	  94
  41	  96
  41	 100
  41	 103
  41	 105
  41	 110
  41	 112
  41	 113
  41	 117
  41	 119
  42	  45
  42	  46
  42	  49
  42	  50
  42	  54
  42	  55
  42	  56
  42	  58
  42	  59
  42	  70
  42	  73
  42	  76
  42	  83
  42	  85
  42	  89
  42	  98
  42	 101
  42	 104
  42	 110
  42	 113
  42	 115
  42	 118
  43	  44
  43	  47
  43	  49
  43	  50
  43	  52
  43	  58
  43	  59
  43	  64
  43	  65
  43	  74
  43	  78
  43	  83
  43	  84
  43	  87
  43	  90
  43	  99
  43	 104
  43	 107
  44	  45
  44	  47
  44	  51
  44	  57
  44	  58
  44	  63
  44	  66
  44	  76
  44	  81
  44	  82
  44	  87
  44	  88
  44	  89
  44	  90
  44	 100
  44	 104
  44	 106
  44	 112
  44	 113
  44	 119
  45	  47
  45	  49
  45	  52
  45	  57
  45	  58
  45	  67
  45	  69
  45	  72
  45	  77
  45	  78
  45	  80
  45	  83
  45	  84
  45	  86
  45	  88
  45	  91
  45	  97
  45	 100
  45	 102
  45	 107
  45	 108
  45	 109
  45	 117
  46	  47
  46	  52
  46	  53
  46	  59
  46	  63
  46	  64
  46	  66
  46	  67
  46	  68
  46	  72
  46	  82
  46	  86
  46	  88
  46	  89
  46	  92
  46	  94
  46	  99
  46	 102
  46	 104
  46	 106
  46	 108
  46	 115
  46	 116
  46	 118
  47	  55
  47	  58
  47	  59
  47	  67
  47	  72
  47	  73
  47	  76
  47	  77
  47	  81
  47	  84
  47	  86
  47	  97
  47	 103
  47	 107
  47	 110
  47	 113
  47	 114
  47	 115
  47	 117
  48	  53
  48	  56
  48	  60
  48	  62
  48	  65
  48	  76
  48	  80
  48	  81
  48	  90
  48	  91
  48	 102
  48	 103
  48	 104
  48	 114
  48	 116
  49	  60
  49	  63
  49	  65
  49	  66
  49	  72
  49	  74
  49	  75
  49	  78
  49	  84
  49	  88
  49	  93
  49	  94
  49	  95
  49	  99
  49	 105
  49	 106
  49	 112
  50	  55
  50	  58
  50	  62
  50	  64
  50	  65
  50	  68
  50	  70
  50	  71
  50	  79
  50	  80
  50	  84
  50	  85
  50	  88
  50	  94
  50	  97
  50	  99
  50	 102
  50	 103
  50	 106
  50	 107
  50	 109
  50	 111
  50	 115
  50	 119
  51	  53
  51	  60
  51	  62
  51	  65
  51	  72
  51	  74
  51	  82
  51	  83
  51	  84
  51	  86
  51	  87
  51	  89
  51	  91
  51	  94
  51	  97
  51	 102
  51	 104
  51	 108
  51	 109
  51	 110
  51	 112
  51	 113
  51	 115
  51	 117
  52	  53
  52	  57
  52	  61
  52	  63
  52	  65
  52	  67
  52	  70
  52	  72
  52	  80
  52	  88
  52	  89
  52	  93
  52	  94
  52	  97
  52	 102
  52	 109
  52	 110
  52	 112
  52	 113
  52	 114
  52	 118
  52	 119
  53	  55
  53	  58
  53	  59
  53	  61
  53	  63
  53	  65
  53	  66
  53	  70
  53	  74
  53	  79
  53	  84
  53	  88
  53	  91
  53	  95
  53	  97
  53	 101
  53	 106
  53	 108
  53	 109
  53	 110
  53	 111
  53	 113
  53	 115
  54	  58
  54	  60
  54	  63
  54	  65
  54	  73
  54	  74
  54	  79
  54	  84
  54	  87
  54	  94
  54	  97
  54	  98
  54	 102
  54	 103
  54	 104
  54	 110
  54	 116
  54	 119
  55	  59
  55	  60
  55	  61
  55	  63
  55	  67
  55	  69
  55	  70
  55	  73
  55	  75
  55	  78
  55	  80
  55	  81
  55	  83
  55	  85
  55	  89
  55	  92
  55	  99
  55	 100
  55	 103
  55	 106
  55	 107
  55	 117
  56	  58
  56	  59
  56	  60
  56	  63
  56	  67
  56	  75
  56	  77
  56	  80
  56	  82
  56	  83
  56	  84
  56	  87
  56	  88
  56	  92
  56	  93
  56	  97
  56	  99
  56	 101
  56	 104
  56	 107
  56	 108
  56	 118
  57	  58
  57	  64
  57	  67
  57	  69
  57	  80
  57	  90
  57	  92
  57	  93
  57	 104
  57	 109
  57	 111
  57	 115
  58	  63
  58	  66
  58	  67
  58	  70
  58	  71
  58	  72
  58	  73
  58	  75
  58	  80
  58	  83
  58	  88
  58	  93
  58	  95
  58	 109
  59	  60
  59	  61
  59	  68
  59	  69
  59	  70
  59	  72
  59	  77
  59	  79
  59	  88
  59	  94
  59	  95
  59	  96
  59	  97
  59	 105
  59	 114
  59	 117
  59	 119
  60	  62
  60	  63
  60	  69
  60	  70
  60	  77
  60	  81
  60	  82
  60	  83
  60	  92
  60	  94
  60	  95
  60	  98
  60	 103
  60	 104
  60	 106
  60	 107
  60	 111
  60	 114
  60	 116
  60	 119
  61	  62
  61	  64
  61	  65
  61	  68
  61	  71
  61	  74
  61	  77
  61	  83
  61	  84
  61	  91
  61	  93
  61	  99
  61	 101
  61	 105
  61	 107
  61	 110
  61	 112
  61	 117
  61	 118
  62	  65
  62	  66
  62	  69
  62	  71
  62	  73
  62	  75
  62	  78
  62	  79
  62	  80
  62	  82
  62	  83
  62	  86
  62	  95
  62	  99
  62	 101
  62	 103
  62	 105
  62	 107
  62	 115
  62	 119
  63	  68
  63	  69
  63	  72
  63	  75
  63	  77
  63	  90
  63	  94
  63	 103
  63	 107
  63	 110
  63	 111
  63	 112
  63	 113
  63	 114
  63	 116
  63	 119
  64	  71
  64	  72
  64	  74
  64	  77
  64	  82
  64	  85
  64	  86
  64	  87
  64	  88
  64	  89
  64	  90
  64	  91
  64	  92
  64	  96
  64	  98
  64	 103
  64	 105
  64	 106
  64	 107
  64	 112
  65	  67
  65	  78
  65	  80
  65	 102
  65	 107
  65	 114
  65	 116
  65	 117
  65	 119
  66	  67
  66	  70
  66	  76
  66	  77
  66	  79
  66	  87
  66	  88
  66	  93
  66	  95
  66	  98
  66	 100
  66	 102
  66	 112
  66	 116
  66	 117
  67	  90
  67	  92
  67	  93
  67	  97
  67	 109
  67	 110
  67	 117
  68	  74
  68	  75
  68	  77
  68	  84
  68	  85
  68	  89
  68	  93
  68	  98
  68	 101
  68	 108
  68	 111
  68	 112
  68	 114
  68	 118
  69	  70
  69	  78
  69	  87
  69	  92
  69	  96
  69	 101
  69	 116
  70	  73
  70	  75
  70	  81
  70	  84
  70	  85
  70	  89
  70	  94
  70	  96
  70	  97
  70	 100
  70	 101
  70	 102
  70	 105
  70	 108
  70	 109
  70	 117
  71	  80
  71	  88
  71	  90
  71	  96
  71	  97
  71	  99
  71	 100
  71	 103
  71	 104
  71	 105
  71	 110
  71	 114
  71	 116
  71	 119
  72	  73
  72	  75
  72	  79
  72	  87
  72	  88
  72	  91
  72	  94
  72	  97
  72	 100
  72	 104
  72	 108
  72	 110
  72	 114
  72	 116
  72	 118
  72	 119
  73	  76
  73	  83
  73	  84
  73	  88
  73	  91
  73	 101
  73	 102
  73	 112
  73	 114
  73	 115
  73	 116
  73	 117
  73	 118
  73	 119
  74	  75
  74	  76
  74	  77
  74	  84
  74	  88
  74	  92
  74	  95
  74	 101
  74	 113
  74	 115
  74	 118
  75	  77
  75	  78
  75	  80
  75	  82
  75	  90
  75	  93
  75	  95
  75	  99
  75	 101
  75	 105
  75	 107
  75	 108
  75	 114
  75	 115
  75	 116
  75	 119
  76	  83
  76	  88
  76	  94
  76	  95
  76	  96
  76	  99
  76	 107
  76	 111
  76	 112
  76	 114
  76	 116
  76	 117
  77	  81
  77	  87
  77	  88
  77	  92
  77	  96
  77	  98
  77	 103
  77	 105
  77	 107
  77	 111
  77	 112
  77	 116
  78	  79
  78	  82
  78	  85
  78	  90
  78	  91
  78	  95
  78	  96
  78	 101
  78	 103
  78	 104
  78	 107
  78	 110
  78	 111
  78	 112
  79	  87
  79	  88
  79	  91
  79	  94
  79	  96
  79	  97
  79	 103
  79	 107
  79	 112
  79	 115
  79	 116
  80	  82
  80	  85
  80	  89
  80	  90
  80	  91
  80	  92
  80	  94
  80	  95
  80	  98
  80	  99
  80	 106
  80	 108
  80	 111
  80	 112
  80	 113
  81	  82
  81	  91
  81	  93
  81	  94
  81	  95
  81	 103
  81	 104
  81	 110
  81	 116
  81	 118
  81	 119
  82	  83
  82	  86
  82	  87
  82	  92
  82	  95
  82	  96
  82	 100
  82	 101
  82	 102
  82	 103
  82	 105
  82	 112
  82	 117
  83	  86
  83	  89
  83	  90
  83	  91
  83	  97
  83	  98
  83	 100
  83	 101
  83	 103
  83	 109
  83	 110
  83	 112
  83	 114
  84	  85
  84	  87
  84	  89
  84	  91
  84	  92
  84	  93
  84	  95
  84	  99
  84	 100
  84	 101
  84	 103
  84	 104
  84	 107
  84	 109
  85	  86
  85	  88
  85	  89
  85	  91
  85	  93
  85	  95
  85	 101
  85	 105
  85	 109
  85	 118
  85	 119
  86	  88
  86	 100
  86	 102
  86	 103
  86	 110
  86	 113
  86	 114
  86	 115
  86	 116
  86	 119
  87	  90
  87	  95
  87	 100
  88	  90
  88	  91
  88	  96
  88	 104
  88	 106
  88	 110
  88	 112
  88	 119
  89	  91
  89	  94
  89	  97
  89	 100
  89	 101
  89	 104
  89	 105
  89	 110
  89	 115
  89	 116
  89	 117
  90	  96
  90	  99
  90	 104
  90	 106
  90	 109
  90	 114
  90	 115
  91	  93
  91	  94
  91	  99
  91	 103
  91	 104
  91	 106
  91	 112
  91	 114
  91	 116
  92	  98
  92	  99
  92	 101
  92	 107
  92	 112
  92	 115
  92	 118
  93	  97
  93	  98
  93	 106
  93	 108
  93	 114
  93	 115
  93	 117
  94	  95
  94	  98
  94	 100
  94	 108
  94	 112
  94	 116
  94	 117
  94	 118
  95	 100
  95	 108
  95	 111
  95	 112
  96	  99
  96	 102
  96	 103
  96	 109
  96	 111
  96	 117
  97	  98
  97	 105
  97	 106
  97	 117
  97	 118
  98	 102
  98	 104
  98	 108
  98	 112
  98	 115
  98	 119
  99	 103
  99	 109
  99	 111
  99	 118
 100	 101
 100	 102
 100	 103
 100	 104
 100	 111
 100	 114
 100	 115
 101	 105
 101	 106
 101	 107
 101	 110
 101	 116
 101	 118
 102	 103
 102	 105
 102	 107
 103	 105
 103	 106
 103	 108
 103	 110
 103	 113
 103	 117
 103	 118
 103	 119
 104	 114
 104	 118
 105	 106
 105	 108
 105	 110
 105	 114
 105	 116
 106	 112
 106	 116
 107	 108
 107	 111
 107	 113
 107	 115
 107	 116
 108	 115
 109	 117
 109	 119
 110	 115
 110	 116
 110	 119
 111	 115
 111	 116
 111	 117
 112	 114
 112	 117
 112	 118
 114	 116
 114	 117
 114	 119
 116	 117
 116	 119
;
